p cnf 39  108         
c M = 6 inputs : 1..6
c xor auxilaries: 7..27
c N = 12 outputs: 28..39
c 7 = 2 xor 6:
7 2 -6 0
7 -2 6 0
-7 2 6 0
-7 -2 -6 0
c 28 = 7
28 -7 0
-28 7 0
c 8 = 1 xor 3:
8 1 -3 0
8 -1 3 0
-8 1 3 0
-8 -1 -3 0
c 9 = 8 xor 5:
9 8 -5 0
9 -8 5 0
-9 8 5 0
-9 -8 -5 0
c 29 = 9
29 -9 0
-29 9 0
c 30 = 1
30 -1 0
-30 1 0
c 10 = 1 xor 3:
10 1 -3 0
10 -1 3 0
-10 1 3 0
-10 -1 -3 0
c 11 = 10 xor 4:
11 10 -4 0
11 -10 4 0
-11 10 4 0
-11 -10 -4 0
c 12 = 11 xor 5:
12 11 -5 0
12 -11 5 0
-12 11 5 0
-12 -11 -5 0
c 31 = 12
31 -12 0
-31 12 0
c 13 = 1 xor 2:
13 1 -2 0
13 -1 2 0
-13 1 2 0
-13 -1 -2 0
c 14 = 13 xor 3:
14 13 -3 0
14 -13 3 0
-14 13 3 0
-14 -13 -3 0
c 15 = 14 xor 4:
15 14 -4 0
15 -14 4 0
-15 14 4 0
-15 -14 -4 0
c 16 = 15 xor 6:
16 15 -6 0
16 -15 6 0
-16 15 6 0
-16 -15 -6 0
c 32 = 16
32 -16 0
-32 16 0
c 33 = 4
33 -4 0
-33 4 0
c 17 = 1 xor 3:
17 1 -3 0
17 -1 3 0
-17 1 3 0
-17 -1 -3 0
c 34 = 17
34 -17 0
-34 17 0
c 18 = 1 xor 3:
18 1 -3 0
18 -1 3 0
-18 1 3 0
-18 -1 -3 0
c 19 = 18 xor 4:
19 18 -4 0
19 -18 4 0
-19 18 4 0
-19 -18 -4 0
c 35 = 19
35 -19 0
-35 19 0
c 20 = 1 xor 4:
20 1 -4 0
20 -1 4 0
-20 1 4 0
-20 -1 -4 0
c 21 = 20 xor 5:
21 20 -5 0
21 -20 5 0
-21 20 5 0
-21 -20 -5 0
c 36 = 21
36 -21 0
-36 21 0
c 22 = 2 xor 3:
22 2 -3 0
22 -2 3 0
-22 2 3 0
-22 -2 -3 0
c 23 = 22 xor 4:
23 22 -4 0
23 -22 4 0
-23 22 4 0
-23 -22 -4 0
c 24 = 23 xor 5:
24 23 -5 0
24 -23 5 0
-24 23 5 0
-24 -23 -5 0
c 25 = 24 xor 6:
25 24 -6 0
25 -24 6 0
-25 24 6 0
-25 -24 -6 0
c 37 = 25
37 -25 0
-37 25 0
c 26 = 1 xor 5:
26 1 -5 0
26 -1 5 0
-26 1 5 0
-26 -1 -5 0
c 38 = 26
38 -26 0
-38 26 0
c 27 = 1 xor 6:
27 1 -6 0
27 -1 6 0
-27 1 6 0
-27 -1 -6 0
c 39 = 27
39 -27 0
-39 27 0
